c User generated cnf file
p cnf 7 24
5 -1 4 0 
4 1 -5 0 
-2 1 7 0 
6 1 -6 0 
1 4 -3 0 
2 7 -5 0 
2 -1 7 0 
2 -7 2 0 
1 4 -7 0 
5 -4 7 0 
5 -3 5 0 
7 2 -6 0 
5 -5 6 0 
1 -4 7 0 
4 7 -7 0 
1 4 -6 0 
1 -2 6 0 
4 -4 2 0 
2 -3 3 0 
5 4 -5 0 
1 -4 7 0 
-2 7 6 0 
2 4 -4 0 
1 -1 6 0 
